NAME : xqf131_solution.tour
TYPE : TOUR
DIMENSION : 132
COMMENT : Tour length: 1626.1282
COMMENT : Time elapsed: 203.37 [s]
TOUR_SECTION
0
25
45
46
19
20
8
9
22
21
1
2
7
60
90
94
102
121
110
86
70
75
51
50
40
39
52
44
26
24
76
80
100
99
97
124
123
126
115
82
18
5
11
6
34
37
30
31
47
54
53
73
111
104
120
129
130
128
98
65
66
71
89
125
122
113
117
105
101
92
88
64
58
41
59
79
72
91
119
114
116
106
87
77
67
63
74
81
108
127
118
109
103
95
96
84
83
55
12
4
27
13
16
28
29
33
43
23
42
10
3
38
36
35
49
68
61
69
78
85
56
32
48
57
62
93
112
107
17
15
14
0
-1
EOF
